3234178
81,100,108,51,4,34,33,44,28,24,19,94,63,10,79,47,73,20,12,67,27,11,59,35,107,77,32,105,64,46,23,9,8,65,76,103,101,17,61,72,70,36,71,56,25,26,68,69,7,13,88,30,38,75,6,41,49,86,85,74,96,57,53,22,66,91,55,3,14,37,40,48,90,99,98,39,54,18,87,95,92,104,16,52,1,83,58,106,89,42,84,43,62,78,21,102,29,82,2,60,5,31,50,80,93,45,15,97,0
